5225.23
85 170 170 85 107 0 170 170 107 107 170 107 0 85 170 170 0 107 0 85 170 170 170 85 170 170 107 107 170 170 85 170 170 170 0 170 170 0 107 85 0 170 170 170 0 170 0 170 170 170 0 0 107 0 0 85 0 0 170 170 0 170 85 170 170 0 0 0 0 170 0 0 170 170 107 107 107 170 0 170 0 107 107 0 170 0 0 194 85 0 170 170 107 170 0 0 0 170 85 107 170 170 107 0 107 107 170 0 170 0 170 170 0 170 170 170 107 0 170 107 0 170 170 0 170 0 85 170 170 107 170 170 170 170 170 107 85 170 170 85 170 170 0 0 170 170 0 170 85 0 107 170 85 170 0 170 170 0 170 107 170 170 0 170 170 0 107 170 170 0 0 85 0 170 0 170 194 0 170 0 170 85 85 170 170 85 107 0 170 107 170 107 107 107 170 0 85 170 0 170 
